&CONTROL
   calculation      = 'ensemble'
   tprnfor          = .true.
/
&SYSTEM
   ecutwfc          = 60
   nosym            = .true.
   occupations      = 'smearing'
   degauss          = 0.02
   smearing         = 'marzari-vanderbilt'
   nspin            = 1
   input_dft        = 'beef-vdw'
   ntyp             = 3
   nat              = 44
   ibrav            = 0
/
&ELECTRONS
   mixing_mode      = 'local-TF'
/
&IONS
/
&CELL
/

ATOMIC_SPECIES
Pt 195.084 Pt.pbe-n-kjpaw_psl.1.0.0.UPF
C 12.011 C.pbe-n-kjpaw_psl.1.0.0.UPF
H 1.008 H.pbe-kjpaw_psl.1.0.0.UPF

K_POINTS automatic
5 5 1  0 0 0

CELL_PARAMETERS angstrom
8.48528137423857 0.00000000000000 0.00000000000000
4.24264068711929 7.34846922834953 0.00000000000000
0.00000000000000 0.00000000000000 28.87191591563440

ATOMIC_POSITIONS angstrom
Pt 0.0000000000 0.0000000000 8.5000000000  0 0 0
Pt 2.8284271247 0.0000000000 8.5000000000  0 0 0
Pt 5.6568542495 0.0000000000 8.5000000000  0 0 0
Pt 1.4142135624 2.4494897428 8.5000000000  0 0 0
Pt 4.2426406871 2.4494897428 8.5000000000  0 0 0
Pt 7.0710678119 2.4494897428 8.5000000000  0 0 0
Pt 2.8284271247 4.8989794856 8.5000000000  0 0 0
Pt 5.6568542495 4.8989794856 8.5000000000  0 0 0
Pt 8.4852813742 4.8989794856 8.5000000000  0 0 0
Pt 1.4142135624 0.8164965809 10.8094010768  0 0 0
Pt 4.2426406871 0.8164965809 10.8094010768  0 0 0
Pt 7.0710678119 0.8164965809 10.8094010768  0 0 0
Pt 2.8284271247 3.2659863237 10.8094010768  0 0 0
Pt 5.6568542495 3.2659863237 10.8094010768  0 0 0
Pt 8.4852813742 3.2659863237 10.8094010768  0 0 0
Pt 4.2426406871 5.7154760665 10.8094010768  0 0 0
Pt 7.0710678119 5.7154760665 10.8094010768  0 0 0
Pt 9.8994949366 5.7154760665 10.8094010768  0 0 0
Pt -0.0065781102 1.6268188210 13.0879661736 
Pt 2.8225584867 1.6259370707 13.0807420337 
Pt 5.6555076572 1.6286208084 13.0892176232 
Pt 1.4081596107 4.0776975532 13.0839890998 
Pt 4.2534457819 4.0858313613 13.1185755337 
Pt 7.0492302169 4.0859917004 13.1279684802 
Pt 2.8274462280 6.5266482486 13.0894878494 
Pt 5.6512113289 6.5073038497 13.1245152137 
Pt 8.4798579992 6.5250866298 13.0913010591 
Pt -0.0105800555 -0.0070062807 15.4184045946 
Pt 2.8173426974 -0.0074262311 15.4092807572 
Pt 5.6463549369 -0.0139658320 15.4133642088 
Pt 1.4040744883 2.4369445016 15.4148157411 
Pt 4.2272091833 2.4272917875 15.3981989687 
Pt 7.0647391930 2.4341556703 15.4204239367 
Pt 2.8076533927 4.8861001311 15.4050583188 
Pt 5.6388415010 4.8815586653 15.6364525478 
Pt 8.4772848683 4.8835353519 15.4149180907 
C 5.5873540812 4.8975161236 17.6442769490 
C 4.7335451057 4.2400867700 18.4396030678 
C 4.7814663341 4.3104999740 19.9426057216 
H 6.3686036811 5.5274304844 18.0675527687 
H 3.9525157926 3.6100944409 18.0201132434 
H 5.5758649812 4.9710873477 20.2944018069 
H 3.8286326672 4.6741312054 20.3416516581 
H 4.9465104733 3.3156391190 20.3802165119 

